126 5
10 10 10 10 10 

0 0 0 0 0 0 2 2 14 
0 0 0 0 0 0 4 3 8 10 81 
2 0 0 0 1 0 1 4 
9 0 0 0 7 0 2 7 5 
1 0 0 0 4 0 1 6 
4 0 0 0 8 0 1 9 
3 0 0 0 5 0 1 9 
9 0 0 0 6 0 1 9 
3 0 0 0 4 0 1 11 
2 0 0 0 4 0 1 11 
1 0 0 0 8 0 1 12 
10 0 0 0 3 0 1 13 
0 0 0 0 0 0 1 26 
0 0 0 0 0 0 2 15 18 
1 0 0 1 0 0 1 16 
1 0 0 6 0 0 1 17 
8 0 0 6 0 0 2 22 20 
5 0 0 4 0 0 1 19 
5 0 0 5 0 0 1 20 
7 0 0 6 0 0 1 21 
9 0 0 6 0 0 1 23 
6 0 0 4 0 0 1 23 
2 0 0 6 0 0 2 24 121 
3 0 0 6 0 0 1 25 
0 0 0 0 0 0 1 26 
0 0 0 0 0 0 2 27 39 
0 0 0 0 0 0 2 28 33 
5 0 1 0 0 0 1 29 
9 0 6 0 0 0 3 37 36 30 
2 0 9 0 0 0 1 31 
3 0 4 0 0 0 1 32 
4 0 4 0 0 0 1 34 
7 0 6 0 0 0 2 34 72 
4 0 2 0 0 0 1 35 
10 0 6 0 0 0 1 38 
3 0 6 0 0 0 1 38 
4 0 6 0 0 0 1 38 
0 0 0 0 0 0 1 51 
0 0 0 0 0 0 2 40 42 
9 0 1 0 0 0 1 41 
9 0 8 0 0 0 1 43 
2 0 3 0 0 0 4 49 46 45 123 
7 0 5 0 0 0 1 44 
6 0 4 0 0 0 2 49 45 
6 0 7 0 0 0 1 47 
2 0 5 0 0 0 1 47 
5 0 5 0 0 0 1 48 
6 0 5 0 0 0 1 50 
1 0 7 0 0 0 1 50 
0 0 0 0 0 0 1 51 
0 0 0 0 0 0 2 52 64 
0 0 0 0 0 0 2 53 57 
9 0 0 0 0 1 1 54 
6 0 0 0 0 5 4 62 61 55 123 
3 0 0 0 0 4 1 56 
9 0 0 0 0 3 1 58 
3 0 0 0 0 10 1 58 
9 0 0 0 0 5 1 59 
1 0 0 0 0 7 1 60 
1 0 0 0 0 3 1 63 
10 0 0 0 0 5 1 63 
7 0 0 0 0 7 1 63 
0 0 0 0 0 0 1 76 
0 0 0 0 0 0 2 65 71 
6 0 0 1 0 0 2 74 66 
1 0 0 6 0 0 1 67 
6 0 0 3 0 0 2 73 68 
6 0 0 8 0 0 1 69 
2 0 0 2 0 0 1 70 
2 0 0 7 0 0 1 72 
8 0 0 6 0 0 2 72 110 
3 0 0 5 0 0 1 75 
5 0 0 8 0 0 1 75 
1 0 0 4 0 0 1 75 
0 0 0 0 0 0 1 76 
0 0 0 0 0 0 2 77 89 
0 0 0 0 0 0 2 78 80 
4 0 0 0 1 0 1 79 
4 0 0 0 5 0 2 82 81 
3 0 0 0 3 0 2 82 81 
9 0 0 0 6 0 1 83 
7 0 0 0 5 0 1 83 
6 0 0 0 9 0 2 86 84 
3 0 0 0 5 0 1 85 
3 0 0 0 6 0 1 87 
5 0 0 0 3 0 1 87 
3 0 0 0 7 0 1 88 
0 0 0 0 0 0 1 101 
0 0 0 0 0 0 2 90 93 
4 0 0 0 1 0 2 94 91 
4 0 0 0 3 0 1 92 
8 0 0 0 8 0 2 97 95 
1 0 0 0 4 0 1 94 
8 0 0 0 7 0 2 97 96 
3 0 0 0 5 0 1 96 
6 0 0 0 4 0 1 98 
4 0 0 0 7 0 1 98 
9 0 0 0 2 0 1 99 
8 0 0 0 9 0 1 100 
0 0 0 0 0 0 1 101 
0 0 0 0 0 0 2 102 114 
0 0 0 0 0 0 2 103 104 
6 3 0 0 0 0 2 106 105 
1 4 0 0 0 0 2 107 105 
2 2 0 0 0 0 2 112 108 
2 5 0 0 0 0 1 107 
7 4 0 0 0 0 1 108 
3 7 0 0 0 0 1 109 
4 5 0 0 0 0 1 110 
8 5 0 0 0 0 1 111 
3 5 0 0 0 0 1 113 
3 10 0 0 0 0 1 113 
0 0 0 0 0 0 1 126 
0 0 0 0 0 0 3 115 117 122 
9 0 0 0 1 0 1 116 
5 0 0 0 4 0 1 118 
1 0 0 0 4 0 1 118 
8 0 0 0 8 0 2 124 119 
7 0 0 0 4 0 1 120 
9 0 0 0 3 0 1 121 
6 0 0 0 5 0 1 123 
8 0 0 0 5 0 1 123 
4 0 0 0 8 0 1 125 
1 0 0 0 8 0 1 125 
0 0 0 0 0 0 1 126 
0 0 0 0 0 0 0 
